; benchmark generated from python API
(set-info :status unknown)
(declare-fun W_S1_V6 () Bool)
(declare-fun W_S1_V4 () Bool)
(declare-fun W_S1_V2 () Bool)
(declare-fun W_S1_V3 () Bool)
(declare-fun W_S1_V1 () Bool)
(declare-fun R_S1_V6 () Bool)
(declare-fun R_S1_V4 () Bool)
(declare-fun R_S1_V5 () Bool)
(declare-fun R_S1_V2 () Bool)
(declare-fun R_S1_V3 () Bool)
(declare-fun R_S1_V1 () Bool)
(declare-fun R_E2_V1 () Bool)
(declare-fun R_E1_V6 () Bool)
(declare-fun R_E1_V4 () Bool)
(declare-fun R_E1_V5 () Bool)
(declare-fun R_E1_V2 () Bool)
(declare-fun DISJ_W_S1_R_E1 () Bool)
(declare-fun DISJ_W_S1_R_S1 () Bool)
(declare-fun R_E2_V6 () Bool)
(declare-fun R_E2_V4 () Bool)
(declare-fun R_E2_V5 () Bool)
(declare-fun R_E2_V2 () Bool)
(declare-fun DISJ_W_S1_R_E2 () Bool)
(declare-fun W_S1_V5 () Bool)
(declare-fun R_E1_V3 () Bool)
(declare-fun R_E1_V1 () Bool)
(declare-fun R_E2_V3 () Bool)
(assert
 (let (($x3164 (forall ((V2_0 Int) )(forall ((V5_0 Int) )(forall ((V4_0 Int) )(forall ((V6_0 Int) )(forall ((MW_S1_V1 Bool) )(forall ((MW_S1_V3 Bool) )(forall ((MW_S1_V2 Bool) )(forall ((MW_S1_V5 Bool) )(forall ((MW_S1_V4 Bool) )(forall ((MW_S1_V6 Bool) )(forall ((S1_V1_!5249 Int) )(forall ((S1_V1_!5255 Int) )(forall ((S1_V1_!5264 Int) )(forall ((S1_V1_!5270 Int) )(forall ((S1_V3_!5250 Int) )(forall ((S1_V3_!5256 Int) )(forall ((S1_V3_!5265 Int) )(forall ((S1_V3_!5271 Int) )(forall ((S1_V2_!5251 Int) )(forall ((S1_V2_!5257 Int) )(forall ((S1_V2_!5266 Int) )(forall ((S1_V2_!5272 Int) )(forall ((E1_!5246 Int) )(forall ((E1_!5261 Int) )(forall ((E1_!5263 Int) )(forall ((S1_V5_!5252 Int) )(forall ((S1_V5_!5258 Int) )(forall ((S1_V5_!5267 Int) )(forall ((S1_V5_!5273 Int) )(forall ((E2_!5247 Int) )(forall ((E2_!5248 Int) )(forall ((E2_!5262 Int) )(forall ((S1_V4_!5253 Int) )(forall ((S1_V4_!5259 Int) )(forall ((S1_V4_!5268 Int) )(forall ((S1_V4_!5274 Int) )(forall ((S1_V6_!5254 Int) )(forall ((S1_V6_!5260 Int) )(forall ((S1_V6_!5269 Int) )(forall ((S1_V6_!5275 Int) )(let ((?x127 (ite MW_S1_V3 S1_V3_!5271 E2_!5262)))
 (let ((?x1773 (ite MW_S1_V3 S1_V3_!5250 E2_!5248)))
 (let ((?x3062 (+ 1 ?x1773)))
 (let ((?x1627 (ite MW_S1_V3 S1_V3_!5256 ?x3062)))
 (let ((?x439 (ite MW_S1_V1 S1_V1_!5264 E1_!5263)))
 (let ((?x2467 (+ 1 ?x439)))
 (let ((?x2406 (ite MW_S1_V1 S1_V1_!5270 ?x2467)))
 (let ((?x881 (ite MW_S1_V1 S1_V1_!5255 E1_!5246)))
 (let (($x1411 (and (= ?x881 ?x2406) (= ?x1627 ?x127) (= (ite MW_S1_V2 S1_V2_!5257 V2_0) (ite MW_S1_V2 S1_V2_!5272 V2_0)) (= (ite MW_S1_V5 S1_V5_!5258 V5_0) (ite MW_S1_V5 S1_V5_!5273 V5_0)) (= (ite MW_S1_V4 S1_V4_!5259 V4_0) (ite MW_S1_V4 S1_V4_!5274 V4_0)) (= (ite MW_S1_V6 S1_V6_!5260 V6_0) (ite MW_S1_V6 S1_V6_!5275 V6_0)))))
 (let (($x2573 (and (not (<= V4_0 E2_!5247)) (not (<= V2_0 E1_!5246)) (not (<= V4_0 E2_!5248)) (not (<= (ite MW_S1_V4 S1_V4_!5253 V4_0) ?x3062)) (>= ?x1627 (+ (- 1) (ite MW_S1_V4 S1_V4_!5259 V4_0))) (>= ?x881 (+ (- 1) (ite MW_S1_V2 S1_V2_!5257 V2_0))) (not (<= V2_0 E1_!5261)) (not (<= V4_0 E2_!5262)) (not (<= V2_0 E1_!5263)) (not (<= (ite MW_S1_V2 S1_V2_!5266 V2_0) ?x2467)) (>= ?x2406 (+ (- 1) (ite MW_S1_V2 S1_V2_!5272 V2_0))) (>= ?x127 (+ (- 1) (ite MW_S1_V4 S1_V4_!5274 V4_0))))))
 (let (($x2356 (= S1_V6_!5269 S1_V6_!5275)))
 (let (($x2509 (not R_S1_V6)))
 (let (($x1330 (or $x2509 (= V6_0 (ite MW_S1_V6 S1_V6_!5269 V6_0)))))
 (let (($x5363 (not R_S1_V4)))
 (let (($x759 (or $x5363 (= V4_0 (ite MW_S1_V4 S1_V4_!5268 V4_0)))))
 (let (($x1344 (not R_S1_V5)))
 (let (($x3464 (or $x1344 (= V5_0 (ite MW_S1_V5 S1_V5_!5267 V5_0)))))
 (let (($x3728 (not R_S1_V2)))
 (let (($x5264 (or $x3728 (= V2_0 (ite MW_S1_V2 S1_V2_!5266 V2_0)))))
 (let (($x3455 (and (or (not R_S1_V1) (= E1_!5263 ?x2467)) (or (not R_S1_V3) (= E2_!5262 (ite MW_S1_V3 S1_V3_!5265 E2_!5262))) $x5264 $x3464 $x759 $x1330)))
 (let (($x5026 (not $x3455)))
 (let (($x1863 (= S1_V6_!5260 S1_V6_!5275)))
 (let (($x5766 (and (or (not R_S1_V1) (= (ite MW_S1_V1 S1_V1_!5249 E1_!5246) ?x2467)) (or (not R_S1_V3) (= ?x1773 (+ (- 1) (ite MW_S1_V3 S1_V3_!5265 E2_!5262)))) (or $x3728 (= (ite MW_S1_V2 S1_V2_!5251 V2_0) (ite MW_S1_V2 S1_V2_!5266 V2_0))) (or $x1344 (= (ite MW_S1_V5 S1_V5_!5252 V5_0) (ite MW_S1_V5 S1_V5_!5267 V5_0))) (or $x5363 (= (ite MW_S1_V4 S1_V4_!5253 V4_0) (ite MW_S1_V4 S1_V4_!5268 V4_0))) (or $x2509 (= (ite MW_S1_V6 S1_V6_!5254 V6_0) (ite MW_S1_V6 S1_V6_!5269 V6_0))))))
 (let (($x587 (not $x5766)))
 (let (($x4799 (= S1_V6_!5260 S1_V6_!5269)))
 (let (($x1294 (or $x2509 (= (ite MW_S1_V6 S1_V6_!5254 V6_0) V6_0))))
 (let (($x5717 (or $x5363 (= (ite MW_S1_V4 S1_V4_!5253 V4_0) V4_0))))
 (let (($x263 (or $x1344 (= (ite MW_S1_V5 S1_V5_!5252 V5_0) V5_0))))
 (let (($x822 (or $x3728 (= (ite MW_S1_V2 S1_V2_!5251 V2_0) V2_0))))
 (let (($x2134 (and (or (not R_S1_V1) (= (ite MW_S1_V1 S1_V1_!5249 E1_!5246) E1_!5263)) (or (not R_S1_V3) (= ?x1773 (+ (- 1) E2_!5262))) $x822 $x263 $x5717 $x1294)))
 (let (($x4830 (not $x2134)))
 (let (($x2580 (and (or (not R_S1_V1) (= (ite MW_S1_V1 S1_V1_!5249 E1_!5246) E1_!5246)) (or (not R_S1_V3) (= ?x1773 (+ (- 1) E2_!5248))) $x822 $x263 $x5717 $x1294)))
 (let (($x4054 (not $x2580)))
 (let (($x2000 (and (or (not R_S1_V1) (= E1_!5246 ?x2467)) (or (not R_S1_V3) (= E2_!5248 (ite MW_S1_V3 S1_V3_!5265 E2_!5262))) $x5264 $x3464 $x759 $x1330)))
 (let (($x612 (not $x2000)))
 (let (($x5929 (and (or (not R_S1_V1) (= E1_!5246 E1_!5263)) (or (not R_S1_V3) (= E2_!5248 E2_!5262)))))
 (let (($x629 (not $x5929)))
 (let (($x2734 (= S1_V4_!5274 S1_V4_!5268)))
 (let (($x5237 (or $x2509 (= (ite MW_S1_V6 S1_V6_!5269 V6_0) V6_0))))
 (let (($x2903 (or $x5363 (= (ite MW_S1_V4 S1_V4_!5268 V4_0) V4_0))))
 (let (($x4237 (or $x1344 (= (ite MW_S1_V5 S1_V5_!5267 V5_0) V5_0))))
 (let (($x1996 (or $x3728 (= (ite MW_S1_V2 S1_V2_!5266 V2_0) V2_0))))
 (let (($x1109 (and (or (not R_S1_V1) (= ?x439 (+ (- 1) E1_!5263))) (or (not R_S1_V3) (= (ite MW_S1_V3 S1_V3_!5265 E2_!5262) E2_!5262)) $x1996 $x4237 $x2903 $x5237)))
 (let (($x3705 (not $x1109)))
 (let (($x4610 (and (or (not R_S1_V1) (= ?x439 (+ (- 1) (ite MW_S1_V1 S1_V1_!5249 E1_!5246)))) (or (not R_S1_V3) (= (ite MW_S1_V3 S1_V3_!5265 E2_!5262) ?x3062)) (or $x3728 (= (ite MW_S1_V2 S1_V2_!5266 V2_0) (ite MW_S1_V2 S1_V2_!5251 V2_0))) (or $x1344 (= (ite MW_S1_V5 S1_V5_!5267 V5_0) (ite MW_S1_V5 S1_V5_!5252 V5_0))) (or $x5363 (= (ite MW_S1_V4 S1_V4_!5268 V4_0) (ite MW_S1_V4 S1_V4_!5253 V4_0))) (or $x2509 (= (ite MW_S1_V6 S1_V6_!5269 V6_0) (ite MW_S1_V6 S1_V6_!5254 V6_0))))))
 (let (($x1070 (not $x4610)))
 (let (($x4705 (and (or (not R_S1_V1) (= ?x439 (+ (- 1) E1_!5246))) (or (not R_S1_V3) (= (ite MW_S1_V3 S1_V3_!5265 E2_!5262) E2_!5248)) $x1996 $x4237 $x2903 $x5237)))
 (let (($x1432 (not $x4705)))
 (let (($x3181 (and (or (not R_S1_V1) (= E1_!5246 (ite MW_S1_V1 S1_V1_!5249 E1_!5246))) (or (not R_S1_V3) (= E2_!5248 ?x3062)) (or $x3728 (= V2_0 (ite MW_S1_V2 S1_V2_!5251 V2_0))) (or $x1344 (= V5_0 (ite MW_S1_V5 S1_V5_!5252 V5_0))) (or $x5363 (= V4_0 (ite MW_S1_V4 S1_V4_!5253 V4_0))) (or $x2509 (= V6_0 (ite MW_S1_V6 S1_V6_!5254 V6_0))))))
 (let (($x4832 (not $x3181)))
 (let (($x3018 (and (or (not R_S1_V1) (= E1_!5263 E1_!5246)) (or (not R_S1_V3) (= E2_!5262 E2_!5248)))))
 (let (($x3543 (= E1_!5263 E1_!5261)))
 (let (($x6029 (= E1_!5263 E1_!5246)))
 (let (($x3172 (= E1_!5246 E1_!5261)))
 (let (($x5277 (and (or $x4832 (= S1_V1_!5249 S1_V1_!5255)) (or $x629 (= S1_V1_!5249 S1_V1_!5264)) (or $x612 (= S1_V1_!5249 S1_V1_!5270)) (or $x4830 (= S1_V1_!5255 S1_V1_!5264)) (or $x1070 (= S1_V1_!5270 S1_V1_!5255)) (or $x3705 (= S1_V1_!5270 S1_V1_!5264)) (or $x4832 (= S1_V3_!5250 S1_V3_!5256)) (or $x629 (= S1_V3_!5250 S1_V3_!5265)) (or $x612 (= S1_V3_!5250 S1_V3_!5271)) (or $x4830 (= S1_V3_!5256 S1_V3_!5265)) (or $x587 (= S1_V3_!5256 S1_V3_!5271)) (or $x5026 (= S1_V3_!5265 S1_V3_!5271)) (or $x629 (= S1_V2_!5251 S1_V2_!5266)) (or $x612 (= S1_V2_!5251 S1_V2_!5272)) (or $x4054 (= S1_V2_!5257 S1_V2_!5251)) (or $x4830 (= S1_V2_!5257 S1_V2_!5266)) (or $x587 (= S1_V2_!5257 S1_V2_!5272)) (or $x5026 (= S1_V2_!5266 S1_V2_!5272)) $x3172 $x6029 $x3543 (or $x4054 (= S1_V5_!5258 S1_V5_!5252)) (or $x4830 (= S1_V5_!5258 S1_V5_!5267)) (or (not $x3018) (= S1_V5_!5267 S1_V5_!5252)) (or $x1432 (= S1_V5_!5273 S1_V5_!5252)) (or $x1070 (= S1_V5_!5273 S1_V5_!5258)) (or $x3705 (= S1_V5_!5273 S1_V5_!5267)) (= E2_!5248 E2_!5247) (or (not (or (not R_E2_V1) $x3172)) (= E2_!5248 E2_!5262)) (or (not (or (not R_E2_V1) (= E1_!5261 E1_!5246))) (= E2_!5262 E2_!5247)) (or $x4832 (= S1_V4_!5253 S1_V4_!5259)) (or $x629 (= S1_V4_!5253 S1_V4_!5268)) (or $x4830 (= S1_V4_!5259 S1_V4_!5268)) (or $x1432 (= S1_V4_!5274 S1_V4_!5253)) (or $x1070 (= S1_V4_!5274 S1_V4_!5259)) (or $x3705 $x2734) (or $x629 (= S1_V6_!5254 S1_V6_!5269)) (or $x612 (= S1_V6_!5254 S1_V6_!5275)) (or $x4054 (= S1_V6_!5260 S1_V6_!5254)) (or $x4830 $x4799) (or $x587 $x1863) (or $x5026 $x2356) (or (not MW_S1_V1) W_S1_V1) (or (not MW_S1_V3) W_S1_V3) (or (not MW_S1_V2) W_S1_V2) (or (not MW_S1_V4) W_S1_V4) (or (not MW_S1_V6) W_S1_V6))))
 (or (not $x5277) (not $x2573) $x1411)))))))))))))))))))))))))))))))))))))))))))))))))))))))))
 )
 )
 )
 )
 )
 )
 )
 )
 )
 )
 )
 )
 )
 )
 )
 )
 )
 )
 )
 )
 )
 )
 )
 )
 )
 )
 )
 )
 )
 )
 )
 )
 )
 )
 )
 )
 )
 )
 )
 ))
 (let (($x2978 (and W_S1_V6 R_E1_V6)))
 (let (($x3715 (and W_S1_V4 R_E1_V4)))
 (let (($x2064 (and W_S1_V2 R_E1_V2)))
 (let (($x6024 (= DISJ_W_S1_R_E1 (not (or $x2064 R_E1_V5 $x3715 $x2978)))))
 (let (($x5201 (and W_S1_V6 R_S1_V6)))
 (let (($x2104 (and W_S1_V4 R_S1_V4)))
 (let (($x1397 (and W_S1_V2 R_S1_V2)))
 (let (($x5979 (and W_S1_V3 R_S1_V3)))
 (let (($x2201 (and W_S1_V1 R_S1_V1)))
 (let (($x4951 (= DISJ_W_S1_R_S1 (not (or $x2201 $x5979 $x1397 R_S1_V5 $x2104 $x5201)))))
 (let (($x2766 (and W_S1_V6 R_E2_V6)))
 (let (($x5167 (and W_S1_V4 R_E2_V4)))
 (let (($x5794 (and W_S1_V2 R_E2_V2)))
 (let (($x974 (and W_S1_V1 R_E2_V1)))
 (let (($x1870 (= DISJ_W_S1_R_E2 (not (or $x974 $x5794 R_E2_V5 $x5167 $x2766)))))
 (let (($x5351 (not R_E1_V3)))
 (let (($x4983 (not R_E1_V1)))
 (let (($x6032 (not R_E2_V3)))
 (and $x6032 $x4983 $x5351 W_S1_V5 $x1870 $x4951 $x6024 $x3164)))))))))))))))))))))
(check-sat)
